5 4
4  3  3  9  4  10  2  8  3  1  12  3  9  4  15  3  2  9  1  10  3  8  3  4  6  2  7  1  5
3  3  3  16  1  14  2  18  3  2  11  3  12  4  10  3  4  9  2  10  3  8
3  3  1  21  3  19  4  22  3  2  18  4  19  1  16  3  4  7  1  8  2  8
3  3  2  20  4  21  3  22  3  3  22  1  20  2  21  3  4  11  3  12  1  10
4  3  3  14  2  15  1  16  3  1  16  4  13  3  14  3  2  13  1  14  4  11  3  4  9  3  10  2  11
